c Random generated cnf formula, satisfiable: false
p cnf 10 50
-9 2 -6 0
6 9 7 0
6 -2 1 0
5 -10 -6 0
-6 10 1 0
-4 8 -6 0
4 10 6 0
2 -8 5 0
-4 -2 -3 0
1 -9 -8 0
-2 -10 1 0
9 7 8 0
4 9 7 0
-1 3 5 0
2 5 1 0
4 3 -10 0
5 6 -9 0
-5 3 -4 0
-3 9 2 0
-3 -2 4 0
2 8 -4 0
1 -8 3 0
-3 -2 4 0
4 6 3 0
4 -10 -8 0
8 -3 4 0
-8 1 2 0
-1 -10 2 0
-5 9 -8 0
-5 8 -4 0
-10 3 5 0
7 -8 4 0
-7 1 -2 0
4 8 -6 0
1 -10 -3 0
4 -6 -3 0
-6 -4 1 0
-1 -6 4 0
9 5 8 0
3 -5 1 0
-6 -3 7 0
-2 -5 9 0
4 -10 9 0
-4 -7 -6 0
7 -9 5 0
1 -10 -9 0
4 9 8 0
-2 -1 -5 0
2 -8 -3 0
-3 8 6 0
